c cnf generated by mark.reason.ac.CompilerAce written by Mark Chavira
c
c Following are a few statistics:
c
c     Number of potentials               : 2
c     Number of constant potentials      : 0
c     Number of root potentials          : 1
c     Number of zero-one root potentials : 0
c     Number of literals                 : 20
c
p cnf 10 8
eclauses 2
-1 3 0
-2 4 0
-6 -1 7 0
-5 -2 8 0
-6 -2 9 0
-5 -1 10 0
1 2 0
5 6 0
